152
1000000
192040
406469
421998
29667
132084
83133
2687
5847
260379
201823
120288
404404
193085
76096
656758
670119
511
45923
269305
195724
5831
253741
263063
329881
422027
15368
333110
214593
625058
491110
267872
315276
687672
69662
240960
134826
37087
332841
433100
79588
346254
29343
488372
62938
19165
626529
35996
259392
375575
104499
648942
544326
231175
169294
109639
668213
267980
285834
666890
376589
312128
75829
165190
97060
148435
455674
343242
638271
674831
469455
126141
714627
308386
513785
280229
358103
186597
740608
714166
271462
285368
83078
565729
462390
346433
15079
423812
320162
104763
405015
66018
605785
199358
710
162529
202240
158570
369288
537610
238712
403126
550477
487500
577709
561920
566900
90426
141919
143959
13615
229821
248539
654181
215966
203159
275828
511588
32636
87290
424410
74091
277992
115930
207841
296534
361407
3568
345819
604795
245260
81943
553248
502307
16394
336416
731979
434271
80451
152091
680091
666877
59363
341618
254587
64217
220489
559085
113400
370621
180726
72073
188728
